3 3 2
30 2 11 1 33 2 22 0 43 1 11 2 27 1 17 0 24 2 11 0 43 2 21 1 42 0 21 2 15 1 2 0 1 2 17 1 13 2 12 1 25 0 16 2 17 1 29 0 37 2 35 1 2 0 32 1 26 2 16 1 42 
30 0 30 1 33 0 2 2 40 0 1 2 24 1 9 0 22 2 8 0 31 2 27 0 37 2 18 0 7 2 36 1 25 0 41 1 3 2 17 1 35 0 37 2 1 0 25 1 28 0 34 1 48 0 19 2 28 1 1 2 38 
30 0 37 1 46 2 30 1 20 2 27 1 38 0 9 1 6 2 27 0 49 1 34 0 39 1 14 2 11 0 24 2 36 0 46 2 1 0 20 1 8 2 45 1 33 0 28 2 39 0 10 1 28 0 47 1 40 0 6 2 24 

-------------
